networks/zoo_89_792/zoo_89_792.txt
Number of groups: 49
Flow 4: {11 56} 
Flow 9: {28 73} 
Flow 10: {31 76} 
Flow 58: {13 27} {27 32} {32 77} 
Flow 62: {3 37} {37 44} {44 42} {42 87} 
Flow 117: {8 7} {7 2} {2 28} {28 31} {31 76} 
Flow 121: {8 6} {6 5} {5 40} {40 85} 
Flow 123: {6 9} {9 41} {41 42} {42 43} {43 88} 
Flow 128: {9 6} {6 7} {7 52} 
Flow 135: {18 19} {19 20} {20 65} 
Flow 152: {5 50} 
Flow 153: {10 6} {6 51} 
Flow 154: {10 9} {9 54} 
Flow 173: {20 21} {21 24} {24 69} 
Flow 181: {11 14} {14 22} {22 32} {32 34} 
Flow 183: {40 39} 
Flow 194: {12 14} {14 11} {11 19} {19 64} 
Flow 196: {12 22} {22 67} 
Flow 208: {44 43} 
Flow 252: {35 29} {29 74} 
Flow 275: {15 17} {17 18} {18 63} 
Flow 332: {19 18} {18 36} {36 37} 
Flow 338: {21 20} {20 19} {19 11} {11 56} 
Flow 360: {7 6} {6 10} 
Flow 379: {32 33} {33 35} {35 80} 
Flow 387: {23 25} {25 22} {22 14} {14 13} {13 1} 
Flow 396: {24 21} {21 25} {25 70} 
Flow 397: {17 15} {15 3} {3 48} 
Flow 408: {25 18} {18 17} {17 62} 
Flow 418: {5 38} {38 30} {30 75} 
Flow 436: {26 27} {27 13} {13 14} {14 15} {15 37} 
Flow 493: {29 35} {35 33} {33 32} {32 27} {27 72} 
Flow 509: {30 38} {38 83} 
Flow 519: {1 4} {4 3} {3 15} {15 16} {16 61} 
Flow 529: {31 29} 
Flow 531: {31 28} {28 35} {35 34} {34 79} 
Flow 565: {34 32} {32 22} {22 25} {25 23} {23 68} 
Flow 569: {34 35} {35 28} {28 73} 
Flow 588: {28 2} {2 1} {1 13} {13 58} 
Flow 608: {41 86} 
Flow 615: {4 1} {1 2} {2 7} {7 8} 
Flow 627: {36 16} {16 15} {15 14} 
Flow 646: {14 12} {12 57} 
Flow 648: {14 59} 
Flow 649: {37 15} {15 60} 
Flow 655: {36 18} {18 25} {25 21} {21 66} 
Flow 668: {37 36} {36 81} 
Flow 681: {38 5} {5 6} {6 8} {8 53} 
Flow 703: {38 39} {39 84} 
Flow 749: {42 44} {44 89} 
Flow 750: {43 44} {44 37} {37 3} {3 4} {4 49} 
Flow 755: {43 42} {42 41} {41 9} {9 10} {10 55} 
Time taken running everything: 339 seconds
