networks/zoo_89_792/standard/zoo_89_792.sol
<?xml version = "1.0" encoding="UTF-8" standalone="yes"?>
<CPLEXSolution version="1.2">
 <header
   problemName="networks/zoo_89_792/zoo_89_792.lp"
   solutionName="incumbent"
   solutionIndex="-1"
   objectiveValue="49"
   solutionTypeValue="3"
   solutionTypeString="primal"
   solutionStatusValue="101"
   solutionStatusString="integer optimal solution"
   solutionMethodString="mip"
   primalFeasible="1"
   dualFeasible="1"
   MIPNodes="0"
   MIPIterations="47569"
   writeLevel="3"/>
 <quality
   epInt="1.0000000000000001e-05"
   epRHS="9.9999999999999995e-07"
   maxIntInfeas="0"
   maxPrimalInfeas="1.7763568394002505e-15"
   maxX="4.0000000000000009"
   maxSlack="10"/>
 <variables>
  <variable name="Y(58,32)" index="4762" value="1"/>
  <variable name="Y(67,7)" index="5484" value="1"/>
  <variable name="Y(94,44)" index="7762" value="1"/>
  <variable name="Y(105,10)" index="8641" value="1"/>
  <variable name="Y(117,31)" index="9658" value="1"/>
  <variable name="Y(123,43)" index="10168" value="1"/>
  <variable name="Y(152,5)" index="12537" value="1"/>
  <variable name="Y(154,9)" index="12707" value="1"/>
  <variable name="Y(172,23)" index="14215" value="1"/>
  <variable name="Y(173,24)" index="14299" value="1"/>
  <variable name="Y(181,32)" index="14971" value="1"/>
  <variable name="Y(194,19)" index="16037" value="1"/>
  <variable name="Y(195,20)" index="16121" value="1"/>
  <variable name="Y(261,41)" index="21620" value="1"/>
  <variable name="Y(275,18)" index="22759" value="1"/>
  <variable name="Y(296,6)" index="24490" value="1"/>
  <variable name="Y(332,42)" index="27514" value="1"/>
  <variable name="Y(333,36)" index="27591" value="1"/>
  <variable name="Y(379,35)" index="31408" value="1"/>
  <variable name="Y(387,13)" index="32050" value="1"/>
  <variable name="Y(396,25)" index="32809" value="1"/>
  <variable name="Y(397,3)" index="32870" value="1"/>
  <variable name="Y(436,15)" index="36119" value="1"/>
  <variable name="Y(469,16)" index="38859" value="1"/>
  <variable name="Y(493,27)" index="40862" value="1"/>
  <variable name="Y(494,28)" index="40946" value="1"/>
  <variable name="Y(509,38)" index="42201" value="1"/>
  <variable name="Y(510,40)" index="42286" value="1"/>
  <variable name="Y(529,29)" index="43852" value="1"/>
  <variable name="Y(531,34)" index="44023" value="1"/>
  <variable name="Y(535,44)" index="44365" value="1"/>
  <variable name="Y(564,22)" index="46750" value="1"/>
  <variable name="Y(570,35)" index="47261" value="1"/>
  <variable name="Y(588,13)" index="48733" value="1"/>
  <variable name="Y(590,17)" index="48903" value="1"/>
  <variable name="Y(601,30)" index="49829" value="1"/>
  <variable name="Y(615,7)" index="50968" value="1"/>
  <variable name="Y(618,11)" index="51221" value="1"/>
  <variable name="Y(627,15)" index="51972" value="1"/>
  <variable name="Y(646,12)" index="53546" value="1"/>
  <variable name="Y(648,14)" index="53714" value="1"/>
  <variable name="Y(649,15)" index="53798" value="1"/>
  <variable name="Y(655,21)" index="54302" value="1"/>
  <variable name="Y(668,36)" index="55396" value="1"/>
  <variable name="Y(670,40)" index="55566" value="1"/>
  <variable name="Y(703,39)" index="58304" value="1"/>
  <variable name="Y(725,8)" index="60099" value="1"/>
  <variable name="Y(750,4)" index="62170" value="1"/>
  <variable name="Y(755,9)" index="62590" value="1"/>
  <variable name="X(1,2,615)" index="66350" value="1"/>
  <variable name="X(1,4,535)" index="67062" value="1"/>
  <variable name="X(1,13,588)" index="67907" value="1"/>
  <variable name="X(2,1,588)" index="68699" value="1"/>
  <variable name="X(2,7,615)" index="69518" value="1"/>
  <variable name="X(2,28,117)" index="69812" value="1"/>
  <variable name="X(3,4,750)" index="71237" value="1"/>
  <variable name="X(3,15,469)" index="71748" value="1"/>
  <variable name="X(3,37,535)" index="72606" value="1"/>
  <variable name="X(3,48,397)" index="73260" value="1"/>
  <variable name="X(4,1,615)" index="74270" value="1"/>
  <variable name="X(4,3,535)" index="74982" value="1"/>
  <variable name="X(4,49,750)" index="75989" value="1"/>
  <variable name="X(5,6,67)" index="76098" value="1"/>
  <variable name="X(5,38,601)" index="77424" value="1"/>
  <variable name="X(5,40,510)" index="78125" value="1"/>
  <variable name="X(5,50,152)" index="78559" value="1"/>
  <variable name="X(6,5,152)" index="79351" value="1"/>
  <variable name="X(6,7,67)" index="80058" value="1"/>
  <variable name="X(6,8,725)" index="81508" value="1"/>
  <variable name="X(6,9,94)" index="81669" value="1"/>
  <variable name="X(6,10,105)" index="82472" value="1"/>
  <variable name="X(6,51,296)" index="83455" value="1"/>
  <variable name="X(7,2,117)" index="84068" value="1"/>
  <variable name="X(7,6,296)" index="85039" value="1"/>
  <variable name="X(7,8,615)" index="86150" value="1"/>
  <variable name="X(7,52,67)" index="86394" value="1"/>
  <variable name="X(8,6,105)" index="87224" value="1"/>
  <variable name="X(8,7,117)" index="88028" value="1"/>
  <variable name="X(8,53,725)" index="89428" value="1"/>
  <variable name="X(9,6,725)" index="90220" value="1"/>
  <variable name="X(9,10,755)" index="91042" value="1"/>
  <variable name="X(9,41,94)" index="91173" value="1"/>
  <variable name="X(9,54,154)" index="92025" value="1"/>
  <variable name="X(10,6,152)" index="92815" value="1"/>
  <variable name="X(10,9,154)" index="93609" value="1"/>
  <variable name="X(10,55,105)" index="94352" value="1"/>
  <variable name="X(11,14,181)" index="95220" value="1"/>
  <variable name="X(11,19,194)" index="96025" value="1"/>
  <variable name="X(11,56,618)" index="97241" value="1"/>
  <variable name="X(12,14,194)" index="97609" value="1"/>
  <variable name="X(12,22,195)" index="98402" value="1"/>
  <variable name="X(12,57,646)" index="99645" value="1"/>
  <variable name="X(13,1,387)" index="100178" value="1"/>
  <variable name="X(13,14,436)" index="101019" value="1"/>
  <variable name="X(13,27,58)" index="101433" value="1"/>
  <variable name="X(13,58,588)" index="102755" value="1"/>
  <variable name="X(14,11,194)" index="103153" value="1"/>
  <variable name="X(14,12,646)" index="104397" value="1"/>
  <variable name="X(14,13,387)" index="104930" value="1"/>
  <variable name="X(14,15,436)" index="105771" value="1"/>
  <variable name="X(14,22,181)" index="106308" value="1"/>
  <variable name="X(14,59,648)" index="107567" value="1"/>
  <variable name="X(15,3,397)" index="108108" value="1"/>
  <variable name="X(15,14,627)" index="109130" value="1"/>
  <variable name="X(15,16,469)" index="109764" value="1"/>
  <variable name="X(15,17,590)" index="110677" value="1"/>
  <variable name="X(15,37,436)" index="111315" value="1"/>
  <variable name="X(15,60,649)" index="112320" value="1"/>
  <variable name="X(16,15,627)" index="113090" value="1"/>
  <variable name="X(16,61,469)" index="113724" value="1"/>
  <variable name="X(17,15,397)" index="114444" value="1"/>
  <variable name="X(17,18,275)" index="115114" value="1"/>
  <variable name="X(17,62,590)" index="116221" value="1"/>
  <variable name="X(18,17,397)" index="116820" value="1"/>
  <variable name="X(18,19,618)" index="117833" value="1"/>
  <variable name="X(18,25,172)" index="118179" value="1"/>
  <variable name="X(18,36,333)" index="119132" value="1"/>
  <variable name="X(18,63,275)" index="119866" value="1"/>
  <variable name="X(19,11,618)" index="121001" value="1"/>
  <variable name="X(19,18,333)" index="121508" value="1"/>
  <variable name="X(19,20,173)" index="122140" value="1"/>
  <variable name="X(19,64,194)" index="122953" value="1"/>
  <variable name="X(20,19,333)" index="123884" value="1"/>
  <variable name="X(20,21,173)" index="124516" value="1"/>
  <variable name="X(20,65,195)" index="125330" value="1"/>
  <variable name="X(21,20,195)" index="126122" value="1"/>
  <variable name="X(21,24,173)" index="126892" value="1"/>
  <variable name="X(21,25,396)" index="127907" value="1"/>
  <variable name="X(21,66,655)" index="128958" value="1"/>
  <variable name="X(22,14,387)" index="129482" value="1"/>
  <variable name="X(22,25,195)" index="130082" value="1"/>
  <variable name="X(22,32,181)" index="130860" value="1"/>
  <variable name="X(22,67,564)" index="132035" value="1"/>
  <variable name="X(23,25,387)" index="132650" value="1"/>
  <variable name="X(23,68,172)" index="133227" value="1"/>
  <variable name="X(24,21,396)" index="134243" value="1"/>
  <variable name="X(24,69,173)" index="134812" value="1"/>
  <variable name="X(25,18,397)" index="135828" value="1"/>
  <variable name="X(25,21,195)" index="136418" value="1"/>
  <variable name="X(25,22,387)" index="137402" value="1"/>
  <variable name="X(25,23,172)" index="137979" value="1"/>
  <variable name="X(25,70,396)" index="138995" value="1"/>
  <variable name="X(26,27,436)" index="139827" value="1"/>
  <variable name="X(27,13,436)" index="140619" value="1"/>
  <variable name="X(27,32,58)" index="141033" value="1"/>
  <variable name="X(27,72,493)" index="142260" value="1"/>
  <variable name="X(28,2,588)" index="143147" value="1"/>
  <variable name="X(28,31,117)" index="143468" value="1"/>
  <variable name="X(28,35,531)" index="144674" value="1"/>
  <variable name="X(28,73,494)" index="145429" value="1"/>
  <variable name="X(29,35,494)" index="146221" value="1"/>
  <variable name="X(29,74,529)" index="147048" value="1"/>
  <variable name="X(30,38,509)" index="147820" value="1"/>
  <variable name="X(30,75,601)" index="148704" value="1"/>
  <variable name="X(31,28,531)" index="149426" value="1"/>
  <variable name="X(31,29,529)" index="150216" value="1"/>
  <variable name="X(31,76,117)" index="150596" value="1"/>
  <variable name="X(32,22,564)" index="151835" value="1"/>
  <variable name="X(32,27,493)" index="152556" value="1"/>
  <variable name="X(32,33,379)" index="153234" value="1"/>
  <variable name="X(32,34,181)" index="153828" value="1"/>
  <variable name="X(32,77,58)" index="154497" value="1"/>
  <variable name="X(33,32,493)" index="155724" value="1"/>
  <variable name="X(33,35,379)" index="156402" value="1"/>
  <variable name="X(34,32,564)" index="157379" value="1"/>
  <variable name="X(34,35,570)" index="158177" value="1"/>
  <variable name="X(34,79,531)" index="158930" value="1"/>
  <variable name="X(35,28,494)" index="159685" value="1"/>
  <variable name="X(35,29,570)" index="160553" value="1"/>
  <variable name="X(35,33,493)" index="161268" value="1"/>
  <variable name="X(35,34,531)" index="162098" value="1"/>
  <variable name="X(35,80,379)" index="162738" value="1"/>
  <variable name="X(36,16,627)" index="163778" value="1"/>
  <variable name="X(36,18,618)" index="164561" value="1"/>
  <variable name="X(36,37,333)" index="165068" value="1"/>
  <variable name="X(36,81,668)" index="166195" value="1"/>
  <variable name="X(37,3,750)" index="167069" value="1"/>
  <variable name="X(37,15,649)" index="167760" value="1"/>
  <variable name="X(37,36,668)" index="168571" value="1"/>
  <variable name="X(37,44,535)" index="169230" value="1"/>
  <variable name="X(38,5,510)" index="169997" value="1"/>
  <variable name="X(38,30,601)" index="170880" value="1"/>
  <variable name="X(38,39,703)" index="171774" value="1"/>
  <variable name="X(38,83,509)" index="172372" value="1"/>
  <variable name="X(39,84,703)" index="173358" value="1"/>
  <variable name="X(40,39,670)" index="174117" value="1"/>
  <variable name="X(40,85,510)" index="174749" value="1"/>
  <variable name="X(41,9,755)" index="175786" value="1"/>
  <variable name="X(41,42,94)" index="175917" value="1"/>
  <variable name="X(41,86,261)" index="176876" value="1"/>
  <variable name="X(42,41,755)" index="178162" value="1"/>
  <variable name="X(42,43,123)" index="178322" value="1"/>
  <variable name="X(42,44,94)" index="179085" value="1"/>
  <variable name="X(42,87,332)" index="180115" value="1"/>
  <variable name="X(43,42,755)" index="181330" value="1"/>
  <variable name="X(43,44,750)" index="182117" value="1"/>
  <variable name="X(43,88,123)" index="182282" value="1"/>
  <variable name="X(44,37,750)" index="183701" value="1"/>
  <variable name="X(44,42,332)" index="184075" value="1"/>
  <variable name="X(44,43,535)" index="185070" value="1"/>
  <variable name="X(44,89,94)" index="185421" value="1"/>
  <variable name="C(58,27)" index="186408" value="1"/>
  <variable name="C(58,32)" index="186409" value="2"/>
  <variable name="C(67,6)" index="186456" value="1"/>
  <variable name="C(67,7)" index="186457" value="1.9999999999999991"/>
  <variable name="C(94,9)" index="186628" value="1"/>
  <variable name="C(94,41)" index="186629" value="2"/>
  <variable name="C(94,42)" index="186630" value="3"/>
  <variable name="C(94,44)" index="186631" value="4"/>
  <variable name="C(105,6)" index="186679" value="1"/>
  <variable name="C(105,10)" index="186680" value="2"/>
  <variable name="C(117,7)" index="186767" value="1"/>
  <variable name="C(117,2)" index="186768" value="2"/>
  <variable name="C(117,28)" index="186769" value="3"/>
  <variable name="C(117,31)" index="186770" value="4"/>
  <variable name="C(123,43)" index="186802" value="1"/>
  <variable name="C(152,6)" index="186968" value="1"/>
  <variable name="C(152,5)" index="186969" value="2"/>
  <variable name="C(154,9)" index="186973" value="1"/>
  <variable name="C(172,25)" index="187077" value="1"/>
  <variable name="C(172,23)" index="187078" value="2"/>
  <variable name="C(173,20)" index="187081" value="1"/>
  <variable name="C(173,21)" index="187082" value="2"/>
  <variable name="C(173,24)" index="187083" value="3"/>
  <variable name="C(181,14)" index="187127" value="1"/>
  <variable name="C(181,22)" index="187128" value="2"/>
  <variable name="C(181,32)" index="187129" value="2.9999999999999996"/>
  <variable name="C(194,14)" index="187214" value="1"/>
  <variable name="C(194,11)" index="187215" value="2"/>
  <variable name="C(194,19)" index="187216" value="3"/>
  <variable name="C(195,22)" index="187218" value="1"/>
  <variable name="C(195,25)" index="187219" value="2"/>
  <variable name="C(195,21)" index="187220" value="3"/>
  <variable name="C(195,20)" index="187221" value="4"/>
  <variable name="C(275,18)" index="187614" value="1"/>
  <variable name="C(296,6)" index="187745" value="1"/>
  <variable name="C(332,42)" index="187953" value="0.99999999999999978"/>
  <variable name="C(333,19)" index="187955" value="1"/>
  <variable name="C(333,18)" index="187956" value="2"/>
  <variable name="C(333,36)" index="187957" value="3"/>
  <variable name="C(379,33)" index="188207" value="1"/>
  <variable name="C(379,35)" index="188208" value="2"/>
  <variable name="C(387,25)" index="188262" value="1"/>
  <variable name="C(387,22)" index="188263" value="2"/>
  <variable name="C(387,14)" index="188264" value="3"/>
  <variable name="C(387,13)" index="188265" value="4"/>
  <variable name="C(396,21)" index="188328" value="1"/>
  <variable name="C(396,25)" index="188329" value="2"/>
  <variable name="C(397,18)" index="188331" value="1"/>
  <variable name="C(397,17)" index="188332" value="2"/>
  <variable name="C(397,15)" index="188333" value="3"/>
  <variable name="C(397,3)" index="188334" value="4"/>
  <variable name="C(436,27)" index="188558" value="1"/>
  <variable name="C(436,13)" index="188559" value="2"/>
  <variable name="C(436,14)" index="188560" value="3"/>
  <variable name="C(436,15)" index="188561" value="4"/>
  <variable name="C(469,15)" index="188739" value="1"/>
  <variable name="C(469,16)" index="188740" value="2"/>
  <variable name="C(493,33)" index="188883" value="1"/>
  <variable name="C(493,32)" index="188884" value="2"/>
  <variable name="C(493,27)" index="188885" value="3"/>
  <variable name="C(494,35)" index="188887" value="1"/>
  <variable name="C(494,28)" index="188888" value="1.9999999999999991"/>
  <variable name="C(509,38)" index="189011" value="1"/>
  <variable name="C(510,5)" index="189014" value="1"/>
  <variable name="C(510,40)" index="189015" value="2"/>
  <variable name="C(529,29)" index="189138" value="1"/>
  <variable name="C(531,28)" index="189145" value="1"/>
  <variable name="C(531,35)" index="189146" value="2"/>
  <variable name="C(531,34)" index="189147" value="2.9999999999999991"/>
  <variable name="C(535,4)" index="189174" value="1.0000000000000009"/>
  <variable name="C(535,3)" index="189175" value="2.0000000000000009"/>
  <variable name="C(535,37)" index="189176" value="3.0000000000000009"/>
  <variable name="C(535,44)" index="189177" value="4.0000000000000009"/>
  <variable name="C(564,32)" index="189342" value="1"/>
  <variable name="C(564,22)" index="189343" value="2"/>
  <variable name="C(570,35)" index="189366" value="1"/>
  <variable name="C(588,2)" index="189475" value="1"/>
  <variable name="C(588,1)" index="189476" value="2"/>
  <variable name="C(588,13)" index="189477" value="3"/>
  <variable name="C(590,17)" index="189491" value="1"/>
  <variable name="C(601,38)" index="189548" value="1"/>
  <variable name="C(601,30)" index="189549" value="2"/>
  <variable name="C(615,1)" index="189635" value="1"/>
  <variable name="C(615,2)" index="189636" value="2"/>
  <variable name="C(615,7)" index="189637" value="3"/>
  <variable name="C(618,18)" index="189653" value="1"/>
  <variable name="C(618,19)" index="189654" value="2"/>
  <variable name="C(618,11)" index="189655" value="3"/>
  <variable name="C(627,16)" index="189684" value="1.0000000000000002"/>
  <variable name="C(627,15)" index="189685" value="2"/>
  <variable name="C(646,12)" index="189798" value="1"/>
  <variable name="C(649,15)" index="189807" value="1"/>
  <variable name="C(668,37)" index="189903" value="3"/>
  <variable name="C(668,36)" index="189904" value="4"/>
  <variable name="C(703,39)" index="190147" value="1"/>
  <variable name="C(725,6)" index="190255" value="1"/>
  <variable name="C(725,8)" index="190256" value="1.9999999999999998"/>
  <variable name="C(750,44)" index="190402" value="0.99999999999999978"/>
  <variable name="C(750,37)" index="190403" value="2"/>
  <variable name="C(750,3)" index="190404" value="3"/>
  <variable name="C(750,4)" index="190405" value="4"/>
  <variable name="C(755,42)" index="190428" value="1"/>
  <variable name="C(755,41)" index="190429" value="1.9999999999999982"/>
  <variable name="C(755,9)" index="190430" value="2.9999999999999982"/>
 </variables>
</CPLEXSolution>
